p cnf 107 481
c p weight 46 0 0
c p weight -46 1 0
c p weight 47 1 0
c p weight -47 1 0
c p weight 104 -1 0
c p weight -104 1 0
c p weight 107 0.5 0
107 0
-41 0
-39 0
-37 0
-35 0
-33 0
-31 0
-29 0
-27 0
-25 0
-23 0
-21 0
-19 0
-17 0
-15 0
-13 0
-11 0
-9 0
-7 0
-5 0
-3 0
-1 0
42 -41 39 0
42 -41 40 0
-42 41 39 0
-42 41 40 0
42 41 -39 -40 0
-42 -41 -39 -40 0
43 39 -40 0
43 -39 40 0
-43 39 40 0
-43 -39 -40 0
44 45 -42 0
44 -42 43 0
-44 45 42 0
-44 42 43 0
44 -42 -39 0
-44 42 -39 0
44 -45 42 39 -43 0
-44 -45 -42 39 -43 0
45 -39 43 0
-45 39 43 0
-46 43 0
45 -46 -39 0
-45 -46 39 0
45 46 39 -43 0
-45 46 -39 -43 0
-47 43 0
45 -47 39 0
-45 -47 -39 0
45 47 -39 -43 0
-45 47 39 -43 0
48 -44 45 0
48 -44 43 0
-48 44 45 0
-48 44 43 0
48 44 -45 -43 0
-48 -44 -45 -43 0
49 45 -43 0
49 -45 43 0
-49 45 43 0
-49 -45 -43 0
50 -48 45 0
50 -48 38 0
-50 48 45 0
-50 48 38 0
50 -48 37 -49 0
50 -48 -37 49 0
-50 48 37 -49 0
-50 48 -37 49 0
50 48 -45 37 49 -38 0
50 48 -45 -37 -49 -38 0
-50 -48 -45 37 49 -38 0
-50 -48 -45 -37 -49 -38 0
52 45 -37 0
52 -45 37 0
-52 45 37 0
-52 -45 -37 0
51 49 -38 0
51 -49 38 0
-51 49 38 0
-51 -49 -38 0
53 -50 52 0
53 -50 36 0
-53 50 52 0
-53 50 36 0
53 -50 35 -38 0
53 -50 -35 38 0
-53 50 35 -38 0
-53 50 -35 38 0
53 50 -52 35 38 -36 0
53 50 -52 -35 -38 -36 0
-53 -50 -52 35 38 -36 0
-53 -50 -52 -35 -38 -36 0
55 52 -35 0
55 -52 35 0
-55 52 35 0
-55 -52 -35 0
54 38 -36 0
54 -38 36 0
-54 38 36 0
-54 -38 -36 0
56 -53 55 0
56 -53 34 0
-56 53 55 0
-56 53 34 0
56 -53 33 -36 0
56 -53 -33 36 0
-56 53 33 -36 0
-56 53 -33 36 0
56 53 -55 33 36 -34 0
56 53 -55 -33 -36 -34 0
-56 -53 -55 33 36 -34 0
-56 -53 -55 -33 -36 -34 0
58 55 -33 0
58 -55 33 0
-58 55 33 0
-58 -55 -33 0
57 36 -34 0
57 -36 34 0
-57 36 34 0
-57 -36 -34 0
59 -56 58 0
59 -56 32 0
-59 56 58 0
-59 56 32 0
59 -56 31 -34 0
59 -56 -31 34 0
-59 56 31 -34 0
-59 56 -31 34 0
59 56 -58 31 34 -32 0
59 56 -58 -31 -34 -32 0
-59 -56 -58 31 34 -32 0
-59 -56 -58 -31 -34 -32 0
61 58 -31 0
61 -58 31 0
-61 58 31 0
-61 -58 -31 0
60 34 -32 0
60 -34 32 0
-60 34 32 0
-60 -34 -32 0
62 -59 61 0
62 -59 30 0
-62 59 61 0
-62 59 30 0
62 -59 29 -32 0
62 -59 -29 32 0
-62 59 29 -32 0
-62 59 -29 32 0
62 59 -61 29 32 -30 0
62 59 -61 -29 -32 -30 0
-62 -59 -61 29 32 -30 0
-62 -59 -61 -29 -32 -30 0
64 61 -29 0
64 -61 29 0
-64 61 29 0
-64 -61 -29 0
63 32 -30 0
63 -32 30 0
-63 32 30 0
-63 -32 -30 0
65 -62 64 0
65 -62 28 0
-65 62 64 0
-65 62 28 0
65 -62 27 -30 0
65 -62 -27 30 0
-65 62 27 -30 0
-65 62 -27 30 0
65 62 -64 27 30 -28 0
65 62 -64 -27 -30 -28 0
-65 -62 -64 27 30 -28 0
-65 -62 -64 -27 -30 -28 0
67 64 -27 0
67 -64 27 0
-67 64 27 0
-67 -64 -27 0
66 30 -28 0
66 -30 28 0
-66 30 28 0
-66 -30 -28 0
68 -65 67 0
68 -65 26 0
-68 65 67 0
-68 65 26 0
68 -65 25 -28 0
68 -65 -25 28 0
-68 65 25 -28 0
-68 65 -25 28 0
68 65 -67 25 28 -26 0
68 65 -67 -25 -28 -26 0
-68 -65 -67 25 28 -26 0
-68 -65 -67 -25 -28 -26 0
70 67 -25 0
70 -67 25 0
-70 67 25 0
-70 -67 -25 0
69 28 -26 0
69 -28 26 0
-69 28 26 0
-69 -28 -26 0
71 -68 70 0
71 -68 24 0
-71 68 70 0
-71 68 24 0
71 -68 23 -26 0
71 -68 -23 26 0
-71 68 23 -26 0
-71 68 -23 26 0
71 68 -70 23 26 -24 0
71 68 -70 -23 -26 -24 0
-71 -68 -70 23 26 -24 0
-71 -68 -70 -23 -26 -24 0
73 70 -23 0
73 -70 23 0
-73 70 23 0
-73 -70 -23 0
72 26 -24 0
72 -26 24 0
-72 26 24 0
-72 -26 -24 0
74 -71 73 0
74 -71 22 0
-74 71 73 0
-74 71 22 0
74 -71 21 -24 0
74 -71 -21 24 0
-74 71 21 -24 0
-74 71 -21 24 0
74 71 -73 21 24 -22 0
74 71 -73 -21 -24 -22 0
-74 -71 -73 21 24 -22 0
-74 -71 -73 -21 -24 -22 0
76 73 -21 0
76 -73 21 0
-76 73 21 0
-76 -73 -21 0
75 24 -22 0
75 -24 22 0
-75 24 22 0
-75 -24 -22 0
77 -74 76 0
77 -74 20 0
-77 74 76 0
-77 74 20 0
77 -74 19 -22 0
77 -74 -19 22 0
-77 74 19 -22 0
-77 74 -19 22 0
77 74 -76 19 22 -20 0
77 74 -76 -19 -22 -20 0
-77 -74 -76 19 22 -20 0
-77 -74 -76 -19 -22 -20 0
79 76 -19 0
79 -76 19 0
-79 76 19 0
-79 -76 -19 0
78 22 -20 0
78 -22 20 0
-78 22 20 0
-78 -22 -20 0
80 -77 79 0
80 -77 18 0
-80 77 79 0
-80 77 18 0
80 -77 17 -20 0
80 -77 -17 20 0
-80 77 17 -20 0
-80 77 -17 20 0
80 77 -79 17 20 -18 0
80 77 -79 -17 -20 -18 0
-80 -77 -79 17 20 -18 0
-80 -77 -79 -17 -20 -18 0
82 79 -17 0
82 -79 17 0
-82 79 17 0
-82 -79 -17 0
81 20 -18 0
81 -20 18 0
-81 20 18 0
-81 -20 -18 0
83 -80 82 0
83 -80 16 0
-83 80 82 0
-83 80 16 0
83 -80 15 -18 0
83 -80 -15 18 0
-83 80 15 -18 0
-83 80 -15 18 0
83 80 -82 15 18 -16 0
83 80 -82 -15 -18 -16 0
-83 -80 -82 15 18 -16 0
-83 -80 -82 -15 -18 -16 0
85 82 -15 0
85 -82 15 0
-85 82 15 0
-85 -82 -15 0
84 18 -16 0
84 -18 16 0
-84 18 16 0
-84 -18 -16 0
86 -83 85 0
86 -83 14 0
-86 83 85 0
-86 83 14 0
86 -83 13 -16 0
86 -83 -13 16 0
-86 83 13 -16 0
-86 83 -13 16 0
86 83 -85 13 16 -14 0
86 83 -85 -13 -16 -14 0
-86 -83 -85 13 16 -14 0
-86 -83 -85 -13 -16 -14 0
88 85 -13 0
88 -85 13 0
-88 85 13 0
-88 -85 -13 0
87 16 -14 0
87 -16 14 0
-87 16 14 0
-87 -16 -14 0
89 -86 88 0
89 -86 12 0
-89 86 88 0
-89 86 12 0
89 -86 11 -14 0
89 -86 -11 14 0
-89 86 11 -14 0
-89 86 -11 14 0
89 86 -88 11 14 -12 0
89 86 -88 -11 -14 -12 0
-89 -86 -88 11 14 -12 0
-89 -86 -88 -11 -14 -12 0
91 88 -11 0
91 -88 11 0
-91 88 11 0
-91 -88 -11 0
90 14 -12 0
90 -14 12 0
-90 14 12 0
-90 -14 -12 0
92 -89 91 0
92 -89 10 0
-92 89 91 0
-92 89 10 0
92 -89 9 -12 0
92 -89 -9 12 0
-92 89 9 -12 0
-92 89 -9 12 0
92 89 -91 9 12 -10 0
92 89 -91 -9 -12 -10 0
-92 -89 -91 9 12 -10 0
-92 -89 -91 -9 -12 -10 0
94 91 -9 0
94 -91 9 0
-94 91 9 0
-94 -91 -9 0
93 12 -10 0
93 -12 10 0
-93 12 10 0
-93 -12 -10 0
95 -92 94 0
95 -92 8 0
-95 92 94 0
-95 92 8 0
95 -92 7 -10 0
95 -92 -7 10 0
-95 92 7 -10 0
-95 92 -7 10 0
95 92 -94 7 10 -8 0
95 92 -94 -7 -10 -8 0
-95 -92 -94 7 10 -8 0
-95 -92 -94 -7 -10 -8 0
97 94 -7 0
97 -94 7 0
-97 94 7 0
-97 -94 -7 0
96 10 -8 0
96 -10 8 0
-96 10 8 0
-96 -10 -8 0
98 -95 97 0
98 -95 6 0
-98 95 97 0
-98 95 6 0
98 -95 5 -8 0
98 -95 -5 8 0
-98 95 5 -8 0
-98 95 -5 8 0
98 95 -97 5 8 -6 0
98 95 -97 -5 -8 -6 0
-98 -95 -97 5 8 -6 0
-98 -95 -97 -5 -8 -6 0
100 97 -5 0
100 -97 5 0
-100 97 5 0
-100 -97 -5 0
99 8 -6 0
99 -8 6 0
-99 8 6 0
-99 -8 -6 0
101 -98 100 0
101 -98 4 0
-101 98 100 0
-101 98 4 0
101 -98 3 -6 0
101 -98 -3 6 0
-101 98 3 -6 0
-101 98 -3 6 0
101 98 -100 3 6 -4 0
101 98 -100 -3 -6 -4 0
-101 -98 -100 3 6 -4 0
-101 -98 -100 -3 -6 -4 0
103 100 -3 0
103 -100 3 0
-103 100 3 0
-103 -100 -3 0
102 6 -4 0
102 -6 4 0
-102 6 4 0
-102 -6 -4 0
104 -101 103 0
104 -101 2 0
-104 101 103 0
-104 101 2 0
104 -101 1 -4 0
104 -101 -1 4 0
-104 101 1 -4 0
-104 101 -1 4 0
104 101 -103 1 4 -2 0
104 101 -103 -1 -4 -2 0
-104 -101 -103 1 4 -2 0
-104 -101 -103 -1 -4 -2 0
106 103 -1 0
106 -103 1 0
-106 103 1 0
-106 -103 -1 0
105 4 -2 0
105 -4 2 0
-105 4 2 0
-105 -4 -2 0
-106 0
-103 0
-105 0
-100 0
-102 0
-97 0
-99 0
-94 0
-96 0
-91 0
-93 0
-88 0
-90 0
-85 0
-87 0
-82 0
-84 0
-79 0
-81 0
-76 0
-78 0
-73 0
-75 0
-70 0
-72 0
-67 0
-69 0
-64 0
-66 0
-61 0
-63 0
-58 0
-60 0
-55 0
-57 0
-52 0
-54 0
-45 0
-51 0
